(declare-const x0 Real)
(declare-const x1 Real)
(declare-const x2 Real)
(declare-const x3 Real)
(declare-const x4 Real)

(assert (<= (- 5.0) (+ (* (- 1.0) x0) (* (- 1.0) x1) (* (- 1.0) x2) (* (- 1.0) x3) (* (- 1.0) x4))))
(assert (<= 20.0 (+ (* 10.0 x0) (* 10.0 x1) (* (- 3.0) x2) (* 5.0 x3) (* 4.0 x4))))
(assert (<= (- 40.0) (+ (* (- 8.0) x0) (* 1.0 x1) (* (- 2.0) x2) (* (- 5.0) x3) (* 3.0 x4))))
(assert (<= 11.0 (+ (* 8.0 x0) (* (- 1.0) x1) (* 2.0 x2) (* 5.0 x3) (* (- 3.0) x4))))
(assert (<= (- 30.0) (+ (* (- 4.0) x0) (* (- 2.0) x1) (* 3.0 x2) (* (- 5.0) x3) (* 1.0 x4))))

(minimize
	(+ (* 18340.0 x0) (* (- 34198.0) x1) (* 4542.0 x2) (* 8672.0 x3) (* 86.0 x4) (+ (* x0 (+ (* 10197.0 x0) (* (- 12454.0) x1) (* (- 1013.0) x2) (* 1948.0 x3) (* 329.0 x4))) (* x1 (+ (* (- 12454.0) x0) (* 20909.0 x1) (* (- 1733.0) x2) (* (- 4914.0) x3) (* (- 186.0) x4))) (* x2 (+ (* (- 1013.0) x0) (* (- 1733.0) x1) (* 1755.0 x2) (* 1089.0 x3) (* (- 174.0) x4))) (* x3 (+ (* 1948.0 x0) (* (- 4914.0) x1) (* 1089.0 x2) (* 1515.0 x3) (* (- 22.0) x4))) (* x4 (+ (* 329.0 x0) (* (- 186.0) x1) (* (- 174.0) x2) (* (- 22.0) x3) (* 27.0 x4))) 14463.0))
)
(check-sat)
(get-objectives)
(exit)

